NAME : Tai100c.1406198.tour
COMMENT : Length = 1406198
COMMENT : Found by LKH [Keld Helsgaun] Tue May  8 14:19:38 2018
TYPE : TOUR
DIMENSION : 111
TOUR_SECTION
1
2
109
4
20
17
24
32
36
29
18
25
35
27
46
72
103
47
33
28
21
30
26
19
41
108
14
97
45
44
43
38
50
55
39
15
107
88
54
65
68
67
66
84
81
80
85
82
83
79
31
23
22
34
48
106
75
11
13
70
56
57
62
59
58
61
63
64
60
74
9
102
78
77
100
76
73
16
110
12
37
69
71
98
49
92
7
111
5
10
6
3
104
8
96
95
52
40
53
42
101
105
93
90
94
87
91
86
51
89
99
-1
EOF
